41
[-1, 466, 0, 905, 685, 761, 701, 288, 0, 0, 744, 555, 0, 945, 0, 0, 0, 645, 465, 0, 0, 0, 0, 0, 0, 0, 0, 0, 0, 0, 0, 0, 611, 653, 498, 0, 0, 0, 0, 0, 398, 
0, -1, 0, 655, 0, 951, 304, 0, 0, 65, 0, 534, 592, 0, 0, 362, 687, 0, 461, 0, 469, 105, 998, 367, 221, 140, 538, 0, 898, 164, 760, 0, 515, 974, 476, 0, 0, 0, 0, 895, 0, 
472, 0, -1, 228, 308, 0, 655, 0, 0, 946, 0, 0, 0, 361, 312, 0, 287, 85, 331, 0, 0, 197, 509, 332, 0, 937, 300, 0, 111, 0, 881, 551, 0, 0, 0, 0, 206, 929, 0, 476, 0, 
659, 969, 679, -1, 572, 512, 0, 0, 0, 859, 0, 554, 869, 0, 984, 610, 773, 854, 353, 0, 0, 0, 0, 0, 0, 0, 85, 36, 0, 0, 729, 696, 0, 0, 813, 0, 797, 819, 0, 0, 706, 
506, 986, 0, 519, -1, 50, 407, 595, 260, 935, 149, 0, 873, 0, 0, 753, 787, 538, 79, 0, 0, 0, 319, 433, 551, 0, 0, 0, 425, 801, 989, 942, 0, 885, 0, 0, 214, 431, 0, 0, 0, 
242, 397, 552, 0, 0, -1, 0, 425, 0, 214, 418, 0, 883, 104, 258, 0, 0, 508, 689, 0, 148, 0, 853, 244, 0, 0, 0, 0, 822, 0, 0, 19, 0, 400, 863, 216, 0, 292, 727, 913, 954, 
0, 0, 396, 0, 808, 977, -1, 0, 994, 0, 0, 0, 0, 0, 191, 585, 300, 0, 478, 0, 397, 0, 378, 351, 716, 56, 879, 0, 0, 874, 347, 0, 0, 0, 965, 912, 505, 0, 0, 0, 0, 
0, 0, 0, 0, 323, 0, 747, -1, 0, 0, 0, 745, 657, 0, 0, 0, 76, 0, 177, 253, 917, 0, 0, 0, 383, 59, 0, 0, 0, 0, 151, 0, 10, 671, 0, 404, 618, 0, 629, 121, 0, 
0, 834, 0, 37, 318, 318, 0, 0, -1, 0, 0, 0, 0, 567, 142, 989, 722, 0, 784, 702, 0, 0, 0, 0, 0, 213, 603, 0, 0, 0, 0, 523, 0, 339, 0, 645, 0, 0, 0, 590, 585, 
0, 319, 549, 653, 77, 979, 0, 379, 0, -1, 338, 0, 79, 0, 498, 220, 319, 0, 759, 0, 107, 150, 189, 0, 0, 0, 0, 0, 0, 682, 0, 179, 234, 0, 25, 345, 0, 48, 775, 874, 259, 
807, 211, 613, 0, 242, 0, 866, 837, 0, 626, -1, 0, 0, 720, 0, 230, 933, 0, 0, 360, 0, 0, 706, 399, 735, 37, 0, 455, 0, 288, 0, 0, 0, 875, 868, 0, 560, 337, 335, 0, 666, 
0, 0, 720, 0, 0, 175, 383, 200, 702, 437, 841, -1, 0, 185, 403, 637, 621, 161, 919, 820, 0, 0, 363, 642, 954, 0, 0, 912, 0, 399, 0, 372, 0, 0, 832, 316, 0, 489, 0, 0, 0, 
0, 0, 797, 438, 215, 0, 867, 0, 866, 962, 0, 0, -1, 0, 296, 479, 0, 397, 939, 0, 0, 102, 542, 29, 656, 0, 0, 739, 901, 0, 759, 0, 30, 0, 0, 0, 0, 0, 548, 0, 223, 
0, 0, 650, 0, 311, 477, 0, 0, 0, 912, 568, 459, 0, -1, 0, 0, 356, 247, 130, 670, 807, 158, 222, 0, 115, 508, 0, 0, 0, 0, 318, 0, 0, 790, 0, 0, 809, 0, 0, 0, 500, 
0, 0, 545, 686, 0, 0, 526, 0, 0, 549, 0, 644, 0, 652, -1, 467, 0, 0, 0, 0, 0, 0, 0, 708, 630, 0, 229, 0, 0, 0, 676, 100, 775, 34, 0, 891, 881, 0, 0, 0, 0, 
500, 78, 0, 0, 0, 0, 0, 572, 0, 0, 0, 0, 196, 0, 877, -1, 761, 0, 580, 0, 68, 0, 231, 346, 0, 0, 0, 0, 0, 882, 847, 347, 0, 422, 268, 147, 31, 977, 0, 969, 939, 
458, 0, 0, 0, 261, 0, 0, 0, 0, 981, 769, 0, 0, 0, 672, 308, -1, 0, 612, 824, 0, 0, 970, 0, 0, 233, 792, 120, 0, 105, 754, 0, 677, 919, 629, 0, 0, 274, 219, 0, 195, 
0, 0, 987, 940, 0, 0, 0, 149, 0, 188, 854, 0, 416, 728, 248, 389, 0, -1, 0, 762, 0, 702, 0, 205, 0, 634, 338, 118, 489, 910, 787, 0, 0, 0, 169, 0, 0, 0, 0, 982, 782, 
720, 15, 278, 845, 982, 0, 0, 0, 0, 80, 842, 0, 0, 537, 0, 932, 0, 0, -1, 0, 580, 0, 544, 586, 439, 453, 0, 0, 500, 0, 0, 0, 0, 480, 0, 698, 359, 445, 132, 280, 15, 
0, 940, 482, 641, 416, 524, 282, 692, 0, 0, 0, 0, 476, 0, 11, 0, 54, 0, 302, -1, 769, 179, 0, 971, 967, 937, 0, 356, 0, 0, 420, 610, 475, 416, 0, 668, 20, 711, 0, 589, 435, 
587, 820, 0, 664, 0, 357, 740, 0, 0, 320, 611, 350, 0, 874, 737, 698, 0, 168, 960, 0, -1, 0, 166, 0, 247, 988, 0, 0, 0, 89, 0, 428, 214, 971, 0, 191, 0, 551, 0, 736, 130, 
0, 608, 780, 317, 0, 0, 613, 259, 726, 0, 249, 338, 0, 703, 281, 0, 533, 0, 850, 0, 0, -1, 6, 303, 0, 0, 0, 582, 0, 58, 604, 139, 0, 0, 632, 0, 0, 0, 0, 902, 660, 
96, 890, 0, 0, 0, 433, 0, 0, 116, 269, 0, 855, 0, 721, 0, 883, 0, 0, 0, 0, 0, 898, -1, 0, 354, 290, 0, 0, 0, 0, 686, 383, 740, 0, 28, 81, 617, 186, 126, 649, 0, 
0, 0, 0, 709, 0, 0, 0, 18, 0, 769, 0, 0, 175, 323, 0, 0, 0, 0, 0, 0, 0, 330, 707, -1, 43, 0, 0, 865, 0, 110, 514, 0, 0, 605, 0, 87, 0, 0, 158, 169, 0, 
9, 0, 804, 0, 212, 0, 0, 0, 819, 0, 907, 0, 0, 742, 0, 0, 35, 0, 0, 0, 0, 485, 0, 0, -1, 941, 439, 0, 0, 0, 0, 751, 584, 28, 371, 877, 779, 197, 0, 0, 0, 
0, 0, 0, 0, 788, 0, 0, 0, 440, 0, 0, 0, 0, 823, 0, 0, 471, 554, 6, 454, 0, 310, 0, 0, 0, -1, 0, 690, 19, 111, 955, 256, 0, 0, 0, 0, 421, 58, 0, 456, 0, 
165, 0, 553, 0, 0, 0, 0, 0, 0, 0, 566, 0, 27, 0, 0, 587, 572, 958, 0, 187, 825, 0, 0, 396, 102, 0, -1, 0, 491, 0, 0, 0, 196, 116, 0, 0, 0, 0, 0, 0, 851, 
367, 33, 0, 0, 243, 695, 782, 0, 0, 0, 615, 461, 0, 0, 955, 0, 277, 963, 631, 0, 0, 0, 0, 0, 365, 0, 0, -1, 0, 0, 325, 0, 0, 0, 305, 425, 405, 0, 778, 0, 0, 
781, 0, 768, 0, 488, 0, 0, 0, 0, 0, 0, 31, 717, 0, 0, 0, 118, 0, 829, 0, 881, 0, 0, 0, 0, 0, 0, 0, -1, 0, 0, 0, 697, 0, 0, 0, 0, 0, 303, 352, 525, 
150, 543, 0, 423, 0, 766, 0, 0, 0, 698, 255, 5, 667, 0, 502, 0, 0, 909, 803, 704, 0, 368, 0, 0, 960, 0, 687, 0, 587, -1, 0, 0, 163, 0, 980, 246, 0, 33, 0, 187, 0, 
578, 0, 947, 729, 686, 0, 0, 0, 60, 765, 0, 683, 0, 0, 0, 730, 134, 0, 242, 947, 0, 0, 149, 0, 0, 20, 0, 439, 191, 0, -1, 612, 357, 180, 0, 223, 0, 188, 0, 0, 950, 
587, 0, 0, 920, 443, 434, 0, 0, 0, 0, 0, 874, 689, 705, 738, 0, 0, 0, 0, 0, 0, 0, 0, 139, 0, 379, 34, 0, 912, 0, 0, -1, 167, 362, 555, 636, 0, 562, 231, 933, 946, 
255, 0, 904, 288, 0, 313, 854, 0, 0, 0, 0, 0, 0, 0, 0, 0, 984, 0, 934, 452, 0, 369, 0, 0, 75, 264, 0, 653, 0, 0, 0, 397, -1, 218, 0, 0, 0, 0, 0, 0, 0, 
0, 0, 0, 369, 965, 452, 0, 250, 0, 638, 242, 0, 0, 772, 792, 659, 0, 155, 0, 613, 275, 0, 506, 961, 366, 0, 0, 0, 0, 0, 0, 210, 999, -1, 420, 365, 104, 0, 0, 0, 0, 
0, 477, 0, 729, 0, 729, 0, 0, 0, 378, 0, 533, 470, 0, 0, 435, 205, 0, 639, 0, 0, 0, 0, 25, 866, 807, 174, 277, 756, 781, 202, 890, 74, 484, -1, 0, 0, 739, 0, 0, 464, 
0, 0, 593, 930, 0, 0, 175, 0, 917, 406, 518, 160, 0, 0, 0, 379, 0, 0, 540, 0, 665, 0, 0, 60, 0, 0, 0, 233, 0, 924, 596, 0, 0, 913, 0, -1, 999, 903, 74, 240, 0, 
282, 0, 199, 0, 833, 919, 397, 0, 0, 846, 0, 194, 836, 906, 223, 0, 50, 399, 0, 0, 968, 0, 272, 0, 726, 821, 303, 63, 0, 432, 59, 0, 832, 313, 659, 78, -1, 0, 0, 138, 230, 
648, 426, 0, 0, 279, 831, 0, 0, 719, 0, 0, 0, 0, 0, 665, 0, 0, 0, 76, 0, 488, 975, 916, 15, 0, 108, 485, 0, 0, 43, 0, 417, 0, 853, 472, 814, 247, -1, 629, 807, 637, 
0, 0, 772, 0, 0, 53, 910, 0, 0, 569, 259, 818, 390, 507, 0, 185, 527, 0, 0, 632, 0, 692, 0, 0, 470, 951, 0, 0, 0, 796, 660, 0, 0, 0, 0, 0, 70, 590, -1, 0, 180, 
832, 536, 0, 0, 0, 265, 335, 0, 599, 599, 203, 0, 896, 0, 0, 374, 868, 0, 161, 0, 0, 421, 437, 611, 213, 0, 0, 842, 885, 735, 682, 753, 0, 0, 0, 0, 0, 274, 0, -1, 203, 
724, 155, 99, 0, 39, 0, 0, 0, 627, 432, 510, 0, 999, 837, 538, 236, 582, 0, 0, 0, 0, 409, 114, 215, 411, 953, 0, 0, 0, 130, 709, 0, 0, 0, 302, 0, 165, 0, 0, 883, -1]